(set-info :smt-lib-version 2.6)
(set-info :category "crafted")
(set-logic QF_FFA)
(define-sort FF0 () (_ FiniteField 52435875175126190479447740508185965837690552500527637822603658699938581184513))
(declare-fun out_alt () FF0)
(declare-fun _76_alt () FF0)
(declare-fun _75_alt () FF0)
(declare-fun _53_alt () FF0)
(declare-fun _74_alt () FF0)
(declare-fun _39_alt () FF0)
(declare-fun _73_alt () FF0)
(declare-fun _58_alt () FF0)
(declare-fun _72_alt () FF0)
(declare-fun _69_alt () FF0)
(declare-fun _70_alt () FF0)
(declare-fun _46_alt () FF0)
(declare-fun _43_alt () FF0)
(declare-fun _0_alt () FF0)
(declare-fun _68_alt () FF0)
(declare-fun _67_alt () FF0)
(declare-fun _64_alt () FF0)
(declare-fun _66_alt () FF0)
(declare-fun _1_alt () FF0)
(declare-fun _65_alt () FF0)
(declare-fun _37_alt () FF0)
(declare-fun _15_alt () FF0)
(declare-fun _63_alt () FF0)
(declare-fun _12_alt () FF0)
(declare-fun _11_alt () FF0)
(declare-fun _62_alt () FF0)
(declare-fun _61_alt () FF0)
(declare-fun _34_alt () FF0)
(declare-fun _60_alt () FF0)
(declare-fun _6_alt () FF0)
(declare-fun _5_alt () FF0)
(declare-fun _27_alt () FF0)
(declare-fun _52_alt () FF0)
(declare-fun _51_alt () FF0)
(declare-fun _50_alt () FF0)
(declare-fun _49_alt () FF0)
(declare-fun _40_alt () FF0)
(declare-fun _44_alt () FF0)
(declare-fun _21_alt () FF0)
(declare-fun _42_alt () FF0)
(declare-fun _35_alt () FF0)
(declare-fun _41_alt () FF0)
(declare-fun _26_alt () FF0)
(declare-fun _33_alt () FF0)
(declare-fun _32_alt () FF0)
(declare-fun _31_alt () FF0)
(declare-fun _30_alt () FF0)
(declare-fun _29_alt () FF0)
(declare-fun _25_alt () FF0)
(declare-fun _24_alt () FF0)
(declare-fun _23_alt () FF0)
(declare-fun _22_alt () FF0)
(declare-fun _20_alt () FF0)
(declare-fun _19_alt () FF0)
(declare-fun _18_alt () FF0)
(declare-fun _17_alt () FF0)
(declare-fun out () FF0)
(declare-fun _76 () FF0)
(declare-fun _75 () FF0)
(declare-fun _53 () FF0)
(declare-fun _74 () FF0)
(declare-fun _39 () FF0)
(declare-fun _73 () FF0)
(declare-fun _58 () FF0)
(declare-fun _72 () FF0)
(declare-fun _69 () FF0)
(declare-fun _70 () FF0)
(declare-fun _46 () FF0)
(declare-fun _43 () FF0)
(declare-fun _0 () FF0)
(declare-fun _68 () FF0)
(declare-fun _67 () FF0)
(declare-fun _64 () FF0)
(declare-fun _66 () FF0)
(declare-fun _1 () FF0)
(declare-fun _65 () FF0)
(declare-fun _37 () FF0)
(declare-fun _15 () FF0)
(declare-fun _63 () FF0)
(declare-fun _12 () FF0)
(declare-fun _11 () FF0)
(declare-fun _62 () FF0)
(declare-fun _61 () FF0)
(declare-fun _34 () FF0)
(declare-fun _60 () FF0)
(declare-fun _6 () FF0)
(declare-fun _5 () FF0)
(declare-fun _27 () FF0)
(declare-fun _52 () FF0)
(declare-fun _51 () FF0)
(declare-fun _50 () FF0)
(declare-fun _49 () FF0)
(declare-fun _40 () FF0)
(declare-fun _44 () FF0)
(declare-fun _21 () FF0)
(declare-fun _42 () FF0)
(declare-fun _35 () FF0)
(declare-fun _41 () FF0)
(declare-fun _26 () FF0)
(declare-fun _33 () FF0)
(declare-fun _32 () FF0)
(declare-fun _31 () FF0)
(declare-fun _30 () FF0)
(declare-fun _29 () FF0)
(declare-fun _25 () FF0)
(declare-fun _24 () FF0)
(declare-fun _23 () FF0)
(declare-fun _22 () FF0)
(declare-fun _20 () FF0)
(declare-fun _19 () FF0)
(declare-fun _18 () FF0)
(declare-fun _17 () FF0)
(assert 
  (let ((let0 out_alt))
  (let ((let1 _76_alt))
  (let ((let2 (= let1 let0)))
  (let ((let3 (as ff1 FF0)))
  (let ((let4 (as ff52435875175126190479447740508185965837690552500527637822603658699938581184512 FF0)))
  (let ((let5 (ff.mul let1 let4)))
  (let ((let6 _75_alt))
  (let ((let7 _53_alt))
  (let ((let8 (ff.mul let7 let4)))
  (let ((let9 (ff.add let8 let6 let5 let3)))
  (let ((let10 (ff.add let8 let3)))
  (let ((let11 (ff.mul let6 let10)))
  (let ((let12 (= let11 let9)))
  (let ((let13 (ff.mul let6 let4)))
  (let ((let14 _74_alt))
  (let ((let15 _39_alt))
  (let ((let16 (ff.mul let15 let4)))
  (let ((let17 (ff.add let16 let14 let13 let3)))
  (let ((let18 (ff.add let16 let3)))
  (let ((let19 (ff.mul let14 let18)))
  (let ((let20 (= let19 let17)))
  (let ((let21 (ff.mul let14 let4)))
  (let ((let22 _73_alt))
  (let ((let23 _58_alt))
  (let ((let24 (ff.mul let23 let4)))
  (let ((let25 (ff.add let24 let22 let21 let3)))
  (let ((let26 (ff.add let24 let3)))
  (let ((let27 (ff.mul let22 let26)))
  (let ((let28 (= let27 let25)))
  (let ((let29 (ff.mul let22 let4)))
  (let ((let30 _72_alt))
  (let ((let31 _69_alt))
  (let ((let32 (ff.add let31 let30 let29)))
  (let ((let33 (ff.mul let30 let31)))
  (let ((let34 (= let33 let32)))
  (let ((let35 (ff.mul let30 let4)))
  (let ((let36 _70_alt))
  (let ((let37 _46_alt))
  (let ((let38 (ff.add let37 let36 let35)))
  (let ((let39 (ff.mul let37 let36)))
  (let ((let40 (= let39 let38)))
  (let ((let41 (ff.mul let36 let4)))
  (let ((let42 _43_alt))
  (let ((let43 _0_alt))
  (let ((let44 (ff.mul let43 let4)))
  (let ((let45 (ff.add let44 let42 let41 let3)))
  (let ((let46 (ff.add let44 let3)))
  (let ((let47 (ff.mul let46 let42)))
  (let ((let48 (= let47 let45)))
  (let ((let49 (ff.mul let31 let4)))
  (let ((let50 _68_alt))
  (let ((let51 (ff.add let7 let50 let49)))
  (let ((let52 (ff.mul let50 let7)))
  (let ((let53 (= let52 let51)))
  (let ((let54 (ff.mul let50 let4)))
  (let ((let55 _67_alt))
  (let ((let56 (ff.add let7 let55 let54)))
  (let ((let57 (ff.mul let55 let7)))
  (let ((let58 (= let57 let56)))
  (let ((let59 _64_alt))
  (let ((let60 _66_alt))
  (let ((let61 (ff.mul let60 let59)))
  (let ((let62 (= let61 let55)))
  (let ((let63 _1_alt))
  (let ((let64 _65_alt))
  (let ((let65 (ff.mul let64 let63)))
  (let ((let66 (= let65 let60)))
  (let ((let67 _37_alt))
  (let ((let68 (ff.mul let67 let4)))
  (let ((let69 (ff.add let68 let3)))
  (let ((let70 (ff.mul let69 let42)))
  (let ((let71 (= let70 let64)))
  (let ((let72 _15_alt))
  (let ((let73 (ff.mul let72 let4)))
  (let ((let74 (ff.add let73 let3)))
  (let ((let75 _63_alt))
  (let ((let76 (ff.mul let75 let74)))
  (let ((let77 (= let76 let59)))
  (let ((let78 _12_alt))
  (let ((let79 _11_alt))
  (let ((let80 (ff.add let79 let78)))
  (let ((let81 _62_alt))
  (let ((let82 (ff.mul let81 let80)))
  (let ((let83 (= let82 let75)))
  (let ((let84 (ff.mul let78 let4)))
  (let ((let85 (ff.mul let79 let4)))
  (let ((let86 (ff.add let85 let84 let3)))
  (let ((let87 _61_alt))
  (let ((let88 (ff.mul let87 let86)))
  (let ((let89 (= let88 let81)))
  (let ((let90 _34_alt))
  (let ((let91 _60_alt))
  (let ((let92 (ff.mul let91 let90)))
  (let ((let93 (= let92 let87)))
  (let ((let94 _6_alt))
  (let ((let95 _5_alt))
  (let ((let96 (ff.add let95 let94)))
  (let ((let97 _27_alt))
  (let ((let98 (ff.mul let97 let96)))
  (let ((let99 (= let98 let91)))
  (let ((let100 (ff.add let15 let8)))
  (let ((let101 (ff.mul let100 let100)))
  (let ((let102 (= let101 let23)))
  (let ((let103 _52_alt))
  (let ((let104 (ff.add let68 let103 let8 let3)))
  (let ((let105 (ff.mul let103 let69)))
  (let ((let106 (= let105 let104)))
  (let ((let107 (ff.mul let103 let4)))
  (let ((let108 _51_alt))
  (let ((let109 (ff.add let15 let108 let107)))
  (let ((let110 (ff.mul let108 let15)))
  (let ((let111 (= let110 let109)))
  (let ((let112 (ff.mul let108 let4)))
  (let ((let113 _50_alt))
  (let ((let114 (ff.add let79 let78 let113 let112)))
  (let ((let115 (ff.mul let113 let80)))
  (let ((let116 (= let115 let114)))
  (let ((let117 (ff.mul let113 let4)))
  (let ((let118 _49_alt))
  (let ((let119 _40_alt))
  (let ((let120 (ff.add let119 let118 let117)))
  (let ((let121 (ff.mul let118 let119)))
  (let ((let122 (= let121 let120)))
  (let ((let123 (ff.mul let118 let4)))
  (let ((let124 (ff.mul let37 let4)))
  (let ((let125 (ff.add let97 let124 let123 let3)))
  (let ((let126 (ff.add let124 let3)))
  (let ((let127 (ff.mul let97 let126)))
  (let ((let128 (= let127 let125)))
  (let ((let129 _44_alt))
  (let ((let130 (ff.mul let129 let4)))
  (let ((let131 (ff.mul let119 let4)))
  (let ((let132 (ff.add let131 let130 let3)))
  (let ((let133 (ff.mul let132 let132)))
  (let ((let134 (= let133 let37)))
  (let ((let135 (ff.add let131 let42)))
  (let ((let136 (ff.mul let135 let135)))
  (let ((let137 (= let136 let129)))
  (let ((let138 _21_alt))
  (let ((let139 _42_alt))
  (let ((let140 (ff.mul let139 let138)))
  (let ((let141 (= let140 let42)))
  (let ((let142 _35_alt))
  (let ((let143 (ff.mul let142 let4)))
  (let ((let144 (ff.add let143 let3)))
  (let ((let145 _41_alt))
  (let ((let146 (ff.mul let145 let144)))
  (let ((let147 (= let146 let139)))
  (let ((let148 (ff.mul let63 let90)))
  (let ((let149 (= let148 let145)))
  (let ((let150 (ff.add let142 let15 let131)))
  (let ((let151 (ff.mul let142 let15)))
  (let ((let152 (= let151 let150)))
  (let ((let153 _26_alt))
  (let ((let154 (ff.add let44 let153 let16 let3)))
  (let ((let155 (ff.mul let46 let153)))
  (let ((let156 (= let155 let154)))
  (let ((let157 (ff.add let97 let143)))
  (let ((let158 (ff.mul let157 let157)))
  (let ((let159 (= let158 let67)))
  (let ((let160 (ff.add let79 let78 let90 let4)))
  (let ((let161 (ff.mul let160 let160)))
  (let ((let162 (= let161 let142)))
  (let ((let163 (ff.mul let90 let4)))
  (let ((let164 _33_alt))
  (let ((let165 (ff.add let73 let164 let163 let3)))
  (let ((let166 (ff.mul let164 let74)))
  (let ((let167 (= let166 let165)))
  (let ((let168 (ff.mul let164 let4)))
  (let ((let169 _32_alt))
  (let ((let170 (ff.add let153 let169 let168)))
  (let ((let171 (ff.mul let169 let153)))
  (let ((let172 (= let171 let170)))
  (let ((let173 (ff.mul let169 let4)))
  (let ((let174 _31_alt))
  (let ((let175 (ff.add let97 let174 let173)))
  (let ((let176 (ff.mul let174 let97)))
  (let ((let177 (= let176 let175)))
  (let ((let178 (ff.mul let174 let4)))
  (let ((let179 _30_alt))
  (let ((let180 (ff.add let97 let179 let178)))
  (let ((let181 (ff.mul let179 let97)))
  (let ((let182 (= let181 let180)))
  (let ((let183 (ff.mul let179 let4)))
  (let ((let184 (as ff2 FF0)))
  (let ((let185 _29_alt))
  (let ((let186 (ff.mul let185 let184)))
  (let ((let187 (ff.add let186 let183)))
  (let ((let188 (ff.mul let185 let185)))
  (let ((let189 (= let188 let187)))
  (let ((let190 (ff.mul let185 let4)))
  (let ((let191 (ff.add let72 let153 let190)))
  (let ((let192 (ff.mul let72 let153)))
  (let ((let193 (= let192 let191)))
  (let ((let194 (ff.mul let86 let153)))
  (let ((let195 (= let194 let97)))
  (let ((let196 _25_alt))
  (let ((let197 (ff.mul let196 let72)))
  (let ((let198 (= let197 let153)))
  (let ((let199 _24_alt))
  (let ((let200 (ff.mul let199 let86)))
  (let ((let201 (= let200 let196)))
  (let ((let202 _23_alt))
  (let ((let203 (ff.mul let202 let86)))
  (let ((let204 (= let203 let199)))
  (let ((let205 _22_alt))
  (let ((let206 (ff.mul let205 let74)))
  (let ((let207 (= let206 let202)))
  (let ((let208 (ff.mul let138 let138)))
  (let ((let209 (= let208 let205)))
  (let ((let210 _20_alt))
  (let ((let211 (ff.mul let210 let80)))
  (let ((let212 (= let211 let138)))
  (let ((let213 _19_alt))
  (let ((let214 (ff.mul let213 let63)))
  (let ((let215 (= let214 let210)))
  (let ((let216 _18_alt))
  (let ((let217 (ff.mul let216 let86)))
  (let ((let218 (= let217 let213)))
  (let ((let219 _17_alt))
  (let ((let220 (ff.mul let219 let86)))
  (let ((let221 (= let220 let216)))
  (let ((let222 (ff.mul let43 let72)))
  (let ((let223 (= let222 let219)))
  (let ((let224 (ff.add let95 let94 let85 let84 let73 let3)))
  (let ((let225 (ff.mul let96 let86)))
  (let ((let226 (= let225 let224)))
  (let ((let227 (ff.mul let94 let4)))
  (let ((let228 (ff.mul let95 let4)))
  (let ((let229 (ff.add let228 let227 let3)))
  (let ((let230 (ff.mul let229 let96)))
  (let ((let231 (= let230 let78)))
  (let ((let232 (ff.mul let96 let63)))
  (let ((let233 (= let232 let79)))
  (let ((let234 (ff.mul let46 let43)))
  (let ((let235 (= let234 let94)))
  (let ((let236 (ff.mul let43 let63)))
  (let ((let237 (= let236 let95)))
  (let ((let238 (ff.mul let63 let63)))
  (let ((let239 (= let238 let63)))
  (let ((let240 (ff.mul let43 let43)))
  (let ((let241 (= let240 let43)))
  (let ((let242 (and let241 let239 let237 let235 let233 let231 let226 let223 let221 let218 let215 let212 let209 let207 let204 let201 let198 let195 let193 let189 let182 let177 let172 let167 let162 let159 let156 let152 let149 let147 let141 let137 let134 let128 let122 let116 let111 let106 let102 let99 let93 let89 let83 let77 let71 let66 let62 let58 let53 let48 let40 let34 let28 let20 let12 let2)))
  (let ((let243 out))
  (let ((let244 _76))
  (let ((let245 (= let244 let243)))
  (let ((let246 (ff.mul let244 let4)))
  (let ((let247 _75))
  (let ((let248 _53))
  (let ((let249 (ff.mul let248 let4)))
  (let ((let250 (ff.add let249 let247 let246 let3)))
  (let ((let251 (ff.add let249 let3)))
  (let ((let252 (ff.mul let247 let251)))
  (let ((let253 (= let252 let250)))
  (let ((let254 (ff.mul let247 let4)))
  (let ((let255 _74))
  (let ((let256 _39))
  (let ((let257 (ff.mul let256 let4)))
  (let ((let258 (ff.add let257 let255 let254 let3)))
  (let ((let259 (ff.add let257 let3)))
  (let ((let260 (ff.mul let255 let259)))
  (let ((let261 (= let260 let258)))
  (let ((let262 (ff.mul let255 let4)))
  (let ((let263 _73))
  (let ((let264 _58))
  (let ((let265 (ff.mul let264 let4)))
  (let ((let266 (ff.add let265 let263 let262 let3)))
  (let ((let267 (ff.add let265 let3)))
  (let ((let268 (ff.mul let263 let267)))
  (let ((let269 (= let268 let266)))
  (let ((let270 (ff.mul let263 let4)))
  (let ((let271 _72))
  (let ((let272 _69))
  (let ((let273 (ff.add let272 let271 let270)))
  (let ((let274 (ff.mul let271 let272)))
  (let ((let275 (= let274 let273)))
  (let ((let276 (ff.mul let271 let4)))
  (let ((let277 _70))
  (let ((let278 _46))
  (let ((let279 (ff.add let278 let277 let276)))
  (let ((let280 (ff.mul let278 let277)))
  (let ((let281 (= let280 let279)))
  (let ((let282 (ff.mul let277 let4)))
  (let ((let283 _43))
  (let ((let284 _0))
  (let ((let285 (ff.mul let284 let4)))
  (let ((let286 (ff.add let285 let283 let282 let3)))
  (let ((let287 (ff.add let285 let3)))
  (let ((let288 (ff.mul let287 let283)))
  (let ((let289 (= let288 let286)))
  (let ((let290 (ff.mul let272 let4)))
  (let ((let291 _68))
  (let ((let292 (ff.add let248 let291 let290)))
  (let ((let293 (ff.mul let291 let248)))
  (let ((let294 (= let293 let292)))
  (let ((let295 (ff.mul let291 let4)))
  (let ((let296 _67))
  (let ((let297 (ff.add let248 let296 let295)))
  (let ((let298 (ff.mul let296 let248)))
  (let ((let299 (= let298 let297)))
  (let ((let300 _64))
  (let ((let301 _66))
  (let ((let302 (ff.mul let301 let300)))
  (let ((let303 (= let302 let296)))
  (let ((let304 _1))
  (let ((let305 _65))
  (let ((let306 (ff.mul let305 let304)))
  (let ((let307 (= let306 let301)))
  (let ((let308 _37))
  (let ((let309 (ff.mul let308 let4)))
  (let ((let310 (ff.add let309 let3)))
  (let ((let311 (ff.mul let310 let283)))
  (let ((let312 (= let311 let305)))
  (let ((let313 _15))
  (let ((let314 (ff.mul let313 let4)))
  (let ((let315 (ff.add let314 let3)))
  (let ((let316 _63))
  (let ((let317 (ff.mul let316 let315)))
  (let ((let318 (= let317 let300)))
  (let ((let319 _12))
  (let ((let320 _11))
  (let ((let321 (ff.add let320 let319)))
  (let ((let322 _62))
  (let ((let323 (ff.mul let322 let321)))
  (let ((let324 (= let323 let316)))
  (let ((let325 (ff.mul let319 let4)))
  (let ((let326 (ff.mul let320 let4)))
  (let ((let327 (ff.add let326 let325 let3)))
  (let ((let328 _61))
  (let ((let329 (ff.mul let328 let327)))
  (let ((let330 (= let329 let322)))
  (let ((let331 _34))
  (let ((let332 _60))
  (let ((let333 (ff.mul let332 let331)))
  (let ((let334 (= let333 let328)))
  (let ((let335 _6))
  (let ((let336 _5))
  (let ((let337 (ff.add let336 let335)))
  (let ((let338 _27))
  (let ((let339 (ff.mul let338 let337)))
  (let ((let340 (= let339 let332)))
  (let ((let341 (ff.add let256 let249)))
  (let ((let342 (ff.mul let341 let341)))
  (let ((let343 (= let342 let264)))
  (let ((let344 _52))
  (let ((let345 (ff.add let309 let344 let249 let3)))
  (let ((let346 (ff.mul let344 let310)))
  (let ((let347 (= let346 let345)))
  (let ((let348 (ff.mul let344 let4)))
  (let ((let349 _51))
  (let ((let350 (ff.add let256 let349 let348)))
  (let ((let351 (ff.mul let349 let256)))
  (let ((let352 (= let351 let350)))
  (let ((let353 (ff.mul let349 let4)))
  (let ((let354 _50))
  (let ((let355 (ff.add let320 let319 let354 let353)))
  (let ((let356 (ff.mul let354 let321)))
  (let ((let357 (= let356 let355)))
  (let ((let358 (ff.mul let354 let4)))
  (let ((let359 _49))
  (let ((let360 _40))
  (let ((let361 (ff.add let360 let359 let358)))
  (let ((let362 (ff.mul let359 let360)))
  (let ((let363 (= let362 let361)))
  (let ((let364 (ff.mul let359 let4)))
  (let ((let365 (ff.mul let278 let4)))
  (let ((let366 (ff.add let338 let365 let364 let3)))
  (let ((let367 (ff.add let365 let3)))
  (let ((let368 (ff.mul let338 let367)))
  (let ((let369 (= let368 let366)))
  (let ((let370 _44))
  (let ((let371 (ff.mul let370 let4)))
  (let ((let372 (ff.mul let360 let4)))
  (let ((let373 (ff.add let372 let371 let3)))
  (let ((let374 (ff.mul let373 let373)))
  (let ((let375 (= let374 let278)))
  (let ((let376 (ff.add let372 let283)))
  (let ((let377 (ff.mul let376 let376)))
  (let ((let378 (= let377 let370)))
  (let ((let379 _21))
  (let ((let380 _42))
  (let ((let381 (ff.mul let380 let379)))
  (let ((let382 (= let381 let283)))
  (let ((let383 _35))
  (let ((let384 (ff.mul let383 let4)))
  (let ((let385 (ff.add let384 let3)))
  (let ((let386 _41))
  (let ((let387 (ff.mul let386 let385)))
  (let ((let388 (= let387 let380)))
  (let ((let389 (ff.mul let304 let331)))
  (let ((let390 (= let389 let386)))
  (let ((let391 (ff.add let383 let256 let372)))
  (let ((let392 (ff.mul let383 let256)))
  (let ((let393 (= let392 let391)))
  (let ((let394 _26))
  (let ((let395 (ff.add let285 let394 let257 let3)))
  (let ((let396 (ff.mul let287 let394)))
  (let ((let397 (= let396 let395)))
  (let ((let398 (ff.add let338 let384)))
  (let ((let399 (ff.mul let398 let398)))
  (let ((let400 (= let399 let308)))
  (let ((let401 (ff.add let320 let319 let331 let4)))
  (let ((let402 (ff.mul let401 let401)))
  (let ((let403 (= let402 let383)))
  (let ((let404 (ff.mul let331 let4)))
  (let ((let405 _33))
  (let ((let406 (ff.add let314 let405 let404 let3)))
  (let ((let407 (ff.mul let405 let315)))
  (let ((let408 (= let407 let406)))
  (let ((let409 (ff.mul let405 let4)))
  (let ((let410 _32))
  (let ((let411 (ff.add let394 let410 let409)))
  (let ((let412 (ff.mul let410 let394)))
  (let ((let413 (= let412 let411)))
  (let ((let414 (ff.mul let410 let4)))
  (let ((let415 _31))
  (let ((let416 (ff.add let338 let415 let414)))
  (let ((let417 (ff.mul let415 let338)))
  (let ((let418 (= let417 let416)))
  (let ((let419 (ff.mul let415 let4)))
  (let ((let420 _30))
  (let ((let421 (ff.add let338 let420 let419)))
  (let ((let422 (ff.mul let420 let338)))
  (let ((let423 (= let422 let421)))
  (let ((let424 (ff.mul let420 let4)))
  (let ((let425 _29))
  (let ((let426 (ff.mul let425 let184)))
  (let ((let427 (ff.add let426 let424)))
  (let ((let428 (ff.mul let425 let425)))
  (let ((let429 (= let428 let427)))
  (let ((let430 (ff.mul let425 let4)))
  (let ((let431 (ff.add let313 let394 let430)))
  (let ((let432 (ff.mul let313 let394)))
  (let ((let433 (= let432 let431)))
  (let ((let434 (ff.mul let327 let394)))
  (let ((let435 (= let434 let338)))
  (let ((let436 _25))
  (let ((let437 (ff.mul let436 let313)))
  (let ((let438 (= let437 let394)))
  (let ((let439 _24))
  (let ((let440 (ff.mul let439 let327)))
  (let ((let441 (= let440 let436)))
  (let ((let442 _23))
  (let ((let443 (ff.mul let442 let327)))
  (let ((let444 (= let443 let439)))
  (let ((let445 _22))
  (let ((let446 (ff.mul let445 let315)))
  (let ((let447 (= let446 let442)))
  (let ((let448 (ff.mul let379 let379)))
  (let ((let449 (= let448 let445)))
  (let ((let450 _20))
  (let ((let451 (ff.mul let450 let321)))
  (let ((let452 (= let451 let379)))
  (let ((let453 _19))
  (let ((let454 (ff.mul let453 let304)))
  (let ((let455 (= let454 let450)))
  (let ((let456 _18))
  (let ((let457 (ff.mul let456 let327)))
  (let ((let458 (= let457 let453)))
  (let ((let459 _17))
  (let ((let460 (ff.mul let459 let327)))
  (let ((let461 (= let460 let456)))
  (let ((let462 (ff.mul let284 let313)))
  (let ((let463 (= let462 let459)))
  (let ((let464 (ff.add let336 let335 let326 let325 let314 let3)))
  (let ((let465 (ff.mul let337 let327)))
  (let ((let466 (= let465 let464)))
  (let ((let467 (ff.mul let335 let4)))
  (let ((let468 (ff.mul let336 let4)))
  (let ((let469 (ff.add let468 let467 let3)))
  (let ((let470 (ff.mul let469 let337)))
  (let ((let471 (= let470 let319)))
  (let ((let472 (ff.mul let337 let304)))
  (let ((let473 (= let472 let320)))
  (let ((let474 (ff.mul let287 let284)))
  (let ((let475 (= let474 let335)))
  (let ((let476 (ff.mul let284 let304)))
  (let ((let477 (= let476 let336)))
  (let ((let478 (ff.mul let304 let304)))
  (let ((let479 (= let478 let304)))
  (let ((let480 (ff.mul let284 let284)))
  (let ((let481 (= let480 let284)))
  (let ((let482 (and let481 let479 let477 let475 let473 let471 let466 let463 let461 let458 let455 let452 let449 let447 let444 let441 let438 let435 let433 let429 let423 let418 let413 let408 let403 let400 let397 let393 let390 let388 let382 let378 let375 let369 let363 let357 let352 let347 let343 let340 let334 let330 let324 let318 let312 let307 let303 let299 let294 let289 let281 let275 let269 let261 let253 let245)))
  (let ((let483 (= let243 let0)))
  (let ((let484 (not let483)))
  (let ((let485 (= let304 let63)))
  (let ((let486 (= let284 let43)))
  (let ((let487 (and let486 let485)))
  (let ((let488 (and let487 let484 let482 let242)))
  let488
)))))))))))))))))))))))))))))))))))))))))))))))))))))))))))))))))))))))))))))))))))))))))))))))))))))))))))))))))))))))))))))))))))))))))))))))))))))))))))))))))))))))))))))))))))))))))))))))))))))))))))))))))))))))))))))))))))))))))))))))))))))))))))))))))))))))))))))))))))))))))))))))))))))))))))))))))))))))))))))))))))))))))))))))))))))))))))))))))))))))))))))))))))))))))))))))))))))))))))))))))))))))))))))))))))))))))))))))))))))))))))))))))))))))))))))))))))))))))))))))))))))))))
)
(check-sat)
